(set-logic HORN)
(declare-datatypes ((Nat_0 0)) (((Z_0 ) (S_0 (unS_0 Nat_0)))))
(declare-fun diseqNat_0 (Nat_0 Nat_0) Bool)
(declare-fun unS_1 (Nat_0 Nat_0) Bool)
(declare-fun isZ_0 (Nat_0) Bool)
(declare-fun isS_0 (Nat_0) Bool)
(assert (forall ((x_108 Nat_0) (x_107 Nat_0))
	(=> (= x_108 (S_0 x_107))
	    (unS_1 x_107 x_108))))
(assert (isZ_0 Z_0))
(assert (forall ((x_109 Nat_0))
	(isS_0 (S_0 x_109))))
(assert (forall ((x_110 Nat_0))
	(diseqNat_0 Z_0 (S_0 x_110))))
(assert (forall ((x_111 Nat_0))
	(diseqNat_0 (S_0 x_111) Z_0)))
(assert (forall ((x_112 Nat_0) (x_113 Nat_0))
	(=> (diseqNat_0 x_112 x_113)
	    (diseqNat_0 (S_0 x_112) (S_0 x_113)))))
(declare-fun add_0 (Nat_0 Nat_0 Nat_0) Bool)
(declare-fun minus_0 (Nat_0 Nat_0 Nat_0) Bool)
(declare-fun le_0 (Nat_0 Nat_0) Bool)
(declare-fun ge_0 (Nat_0 Nat_0) Bool)
(declare-fun lt_0 (Nat_0 Nat_0) Bool)
(declare-fun gt_0 (Nat_0 Nat_0) Bool)
(declare-fun mult_0 (Nat_0 Nat_0 Nat_0) Bool)
(declare-fun div_0 (Nat_0 Nat_0 Nat_0) Bool)
(declare-fun mod_0 (Nat_0 Nat_0 Nat_0) Bool)
(assert (forall ((y_0 Nat_0))
	(add_0 y_0 Z_0 y_0)))
(assert (forall ((x_99 Nat_0) (y_0 Nat_0) (r_0 Nat_0))
	(=> (add_0 r_0 x_99 y_0)
	    (add_0 (S_0 r_0) (S_0 x_99) y_0))))
(assert (forall ((y_0 Nat_0))
	(minus_0 Z_0 Z_0 y_0)))
(assert (forall ((x_99 Nat_0) (y_0 Nat_0) (r_0 Nat_0))
	(=> (minus_0 r_0 x_99 y_0)
	    (minus_0 (S_0 r_0) (S_0 x_99) y_0))))
(assert (forall ((y_0 Nat_0))
	(le_0 Z_0 y_0)))
(assert (forall ((x_99 Nat_0) (y_0 Nat_0))
	(=> (le_0 x_99 y_0)
	    (le_0 (S_0 x_99) (S_0 y_0)))))
(assert (forall ((y_0 Nat_0))
	(ge_0 y_0 Z_0)))
(assert (forall ((x_99 Nat_0) (y_0 Nat_0))
	(=> (ge_0 x_99 y_0)
	    (ge_0 (S_0 x_99) (S_0 y_0)))))
(assert (forall ((y_0 Nat_0))
	(lt_0 Z_0 (S_0 y_0))))
(assert (forall ((x_99 Nat_0) (y_0 Nat_0))
	(=> (lt_0 x_99 y_0)
	    (lt_0 (S_0 x_99) (S_0 y_0)))))
(assert (forall ((y_0 Nat_0))
	(gt_0 (S_0 y_0) Z_0)))
(assert (forall ((x_99 Nat_0) (y_0 Nat_0))
	(=> (gt_0 x_99 y_0)
	    (gt_0 (S_0 x_99) (S_0 y_0)))))
(assert (forall ((y_0 Nat_0))
	(mult_0 Z_0 Z_0 y_0)))
(assert (forall ((x_99 Nat_0) (y_0 Nat_0) (r_0 Nat_0) (z_1 Nat_0))
	(=>	(and (mult_0 r_0 x_99 y_0)
			(add_0 z_1 r_0 y_0))
		(mult_0 z_1 (S_0 x_99) y_0))))
(assert (forall ((x_99 Nat_0) (y_0 Nat_0))
	(=> (lt_0 x_99 y_0)
	    (div_0 Z_0 x_99 y_0))))
(assert (forall ((x_99 Nat_0) (y_0 Nat_0) (r_0 Nat_0) (z_1 Nat_0))
	(=>	(and (ge_0 x_99 y_0)
			(minus_0 z_1 x_99 y_0)
			(div_0 r_0 z_1 y_0))
		(div_0 (S_0 r_0) x_99 y_0))))
(assert (forall ((x_99 Nat_0) (y_0 Nat_0))
	(=> (lt_0 x_99 y_0)
	    (mod_0 x_99 x_99 y_0))))
(assert (forall ((x_99 Nat_0) (y_0 Nat_0) (r_0 Nat_0) (z_1 Nat_0))
	(=>	(and (ge_0 x_99 y_0)
			(minus_0 z_1 x_99 y_0)
			(mod_0 r_0 z_1 y_0))
		(mod_0 r_0 x_99 y_0))))
(declare-fun and_0 (Bool Bool Bool) Bool)
(declare-fun or_0 (Bool Bool Bool) Bool)
(declare-fun hence_0 (Bool Bool Bool) Bool)
(declare-fun not_0 (Bool Bool) Bool)
(assert (and_0 false false false))
(assert (and_0 false true false))
(assert (and_0 false false true))
(assert (and_0 true true true))
(assert (or_0 false false false))
(assert (or_0 true true false))
(assert (or_0 true false true))
(assert (or_0 true true true))
(assert (hence_0 true false false))
(assert (hence_0 false true false))
(assert (hence_0 true false true))
(assert (hence_0 true true true))
(assert (not_0 true false))
(assert (not_0 false true))
(declare-datatypes ((List_0 0)) (((List_1 (List_2 Nat_0) (List_3 List_0)) (List_4 ))))
(declare-fun diseqList_0 (List_0 List_0) Bool)
(declare-fun List_5 (Nat_0 List_0) Bool)
(declare-fun List_6 (List_0 List_0) Bool)
(declare-fun isList_0 (List_0) Bool)
(declare-fun isList_1 (List_0) Bool)
(assert (forall ((x_116 List_0) (x_114 Nat_0) (x_115 List_0))
	(=> (= x_116 (List_1 x_114 x_115))
	    (List_5 x_114 x_116))))
(assert (forall ((x_116 List_0) (x_114 Nat_0) (x_115 List_0))
	(=> (= x_116 (List_1 x_114 x_115))
	    (List_6 x_115 x_116))))
(assert (forall ((x_118 Nat_0) (x_119 List_0))
	(isList_0 (List_1 x_118 x_119))))
(assert (isList_1 List_4))
(assert (forall ((x_120 Nat_0) (x_121 List_0))
	(diseqList_0 (List_1 x_120 x_121) List_4)))
(assert (forall ((x_122 Nat_0) (x_123 List_0))
	(diseqList_0 List_4 (List_1 x_122 x_123))))
(assert (forall ((x_124 Nat_0) (x_125 List_0) (x_126 Nat_0) (x_127 List_0))
	(=> (diseqNat_0 x_124 x_126)
	    (diseqList_0 (List_1 x_124 x_125) (List_1 x_126 x_127)))))
(assert (forall ((x_124 Nat_0) (x_125 List_0) (x_126 Nat_0) (x_127 List_0))
	(=> (diseqList_0 x_125 x_127)
	    (diseqList_0 (List_1 x_124 x_125) (List_1 x_126 x_127)))))
(declare-datatypes ((MutList_0 0)) (((mutList_1 (curList_0 List_0) (retList_0 List_0)))))
(declare-fun diseqMutList_0 (MutList_0 MutList_0) Bool)
(declare-fun curList_1 (List_0 MutList_0) Bool)
(declare-fun retList_1 (List_0 MutList_0) Bool)
(declare-fun ismutList_0 (MutList_0) Bool)
(assert (forall ((x_130 MutList_0) (x_128 List_0) (x_129 List_0))
	(=> (= x_130 (mutList_1 x_128 x_129))
	    (curList_1 x_128 x_130))))
(assert (forall ((x_130 MutList_0) (x_128 List_0) (x_129 List_0))
	(=> (= x_130 (mutList_1 x_128 x_129))
	    (retList_1 x_129 x_130))))
(assert (forall ((x_131 List_0) (x_132 List_0))
	(ismutList_0 (mutList_1 x_131 x_132))))
(assert (forall ((x_133 List_0) (x_134 List_0) (x_135 List_0) (x_136 List_0))
	(=> (diseqList_0 x_133 x_135)
	    (diseqMutList_0 (mutList_1 x_133 x_134) (mutList_1 x_135 x_136)))))
(assert (forall ((x_133 List_0) (x_134 List_0) (x_135 List_0) (x_136 List_0))
	(=> (diseqList_0 x_134 x_136)
	    (diseqMutList_0 (mutList_1 x_133 x_134) (mutList_1 x_135 x_136)))))
(declare-datatypes ((MutInt_0 0)) (((mutInt_1 (curInt_0 Nat_0) (retInt_0 Nat_0)))))
(declare-fun diseqMutInt_0 (MutInt_0 MutInt_0) Bool)
(declare-fun curInt_1 (Nat_0 MutInt_0) Bool)
(declare-fun retInt_1 (Nat_0 MutInt_0) Bool)
(declare-fun ismutInt_0 (MutInt_0) Bool)
(assert (forall ((x_139 MutInt_0) (x_137 Nat_0) (x_138 Nat_0))
	(=> (= x_139 (mutInt_1 x_137 x_138))
	    (curInt_1 x_137 x_139))))
(assert (forall ((x_139 MutInt_0) (x_137 Nat_0) (x_138 Nat_0))
	(=> (= x_139 (mutInt_1 x_137 x_138))
	    (retInt_1 x_138 x_139))))
(assert (forall ((x_140 Nat_0) (x_141 Nat_0))
	(ismutInt_0 (mutInt_1 x_140 x_141))))
(assert (forall ((x_142 Nat_0) (x_143 Nat_0) (x_144 Nat_0) (x_145 Nat_0))
	(=> (diseqNat_0 x_142 x_144)
	    (diseqMutInt_0 (mutInt_1 x_142 x_143) (mutInt_1 x_144 x_145)))))
(assert (forall ((x_142 Nat_0) (x_143 Nat_0) (x_144 Nat_0) (x_145 Nat_0))
	(=> (diseqNat_0 x_143 x_145)
	    (diseqMutInt_0 (mutInt_1 x_142 x_143) (mutInt_1 x_144 x_145)))))
(declare-fun main_0 (Bool) Bool)
(declare-fun mainabs_0 (List_0 Bool Bool Nat_0) Bool)
(declare-fun sum_0 (List_0 Nat_0) Bool)
(declare-fun takesomeabs_0 (MutList_0 MutInt_0 Nat_0 Nat_0) Bool)
(declare-fun sum_1 (List_0 Nat_0) Bool)
(declare-fun takesomeabs_1 (MutList_0 MutInt_0 Nat_0 Nat_0) Bool)
(declare-fun takesomeabs_2 (MutList_0 MutInt_0 MutList_0 Bool MutInt_0 Nat_0 Nat_0 Nat_0 Nat_0) Bool)
(declare-fun sum_2 (Nat_0 List_0) Bool)
(assert (forall ((x_0 List_0) (x_58 Nat_0))
	(=>	(and (= x_58 Z_0)
			(= x_0 List_4))
		(sum_2 x_58 x_0))))
(assert (forall ((x_0 List_0) (x_59 Nat_0) (x_60 Nat_0) (x_100 Nat_0) (x_146 List_0) (x_147 Nat_0))
	(=>	(and (= x_59 x_100)
			(sum_2 x_60 x_146)
			(diseqList_0 x_0 List_4)
			(add_0 x_100 x_147 x_60)
			(List_6 x_146 x_0)
			(List_5 x_147 x_0))
		(sum_2 x_59 x_0))))
(assert (forall ((x_1 Bool) (x_2 Nat_0) (x_3 MutInt_0) (x_4 Nat_0) (x_5 List_0) (x_6 List_0) (x_7 List_0) (c_0 Nat_0) (c_1 Nat_0) (c_2 Nat_0) (x_61 Nat_0) (x_62 Nat_0) (x_63 Nat_0) (x_64 Nat_0) (x_65 Nat_0) (x_97 Bool) (x_101 Nat_0) (x_102 Nat_0) (x_148 Nat_0) (x_149 Nat_0))
	(=>	(and (= x_61 c_0)
			(sum_0 x_5 c_0)
			(= x_62 c_1)
			(sum_0 x_7 c_1)
			(= x_63 c_2)
			(sum_0 x_6 c_2)
			(sum_0 x_5 x_2)
			(takesomeabs_0 (mutList_1 x_5 x_7) x_3 c_0 c_1)
			(sum_0 x_6 x_4)
			(mainabs_0 x_6 x_97 x_1 c_2)
			(gt_0 x_4 x_101)
			(= x_64 x_2)
			(= x_65 x_4)
			(= x_6 x_7)
			(= x_148 x_102)
			(sum_2 x_61 x_5)
			(sum_2 x_62 x_7)
			(sum_2 x_63 x_6)
			(sum_2 x_64 x_5)
			(sum_2 x_65 x_6)
			(not_0 x_97 true)
			(add_0 x_101 x_2 (S_0 Z_0))
			(add_0 x_102 x_149 (S_0 Z_0))
			(retInt_1 x_148 x_3)
			(curInt_1 x_149 x_3))
		(main_0 x_1))))
(assert (forall ((x_1 Bool) (x_2 Nat_0) (x_3 MutInt_0) (x_4 Nat_0) (x_5 List_0) (x_6 List_0) (x_7 List_0) (c_0 Nat_0) (c_1 Nat_0) (c_2 Nat_0) (x_66 Nat_0) (x_67 Nat_0) (x_68 Nat_0) (x_69 Nat_0) (x_70 Nat_0) (x_98 Bool) (x_103 Nat_0) (x_104 Nat_0) (x_150 Nat_0) (x_151 Nat_0))
	(=>	(and (= x_66 c_0)
			(sum_0 x_5 c_0)
			(= x_67 c_1)
			(sum_0 x_7 c_1)
			(= x_68 c_2)
			(sum_0 x_6 c_2)
			(sum_0 x_5 x_2)
			(takesomeabs_0 (mutList_1 x_5 x_7) x_3 c_0 c_1)
			(sum_0 x_6 x_4)
			(mainabs_0 x_6 x_98 x_1 c_2)
			(le_0 x_4 x_103)
			(= x_69 x_2)
			(= x_70 x_4)
			(= x_6 x_7)
			(= x_150 x_104)
			(sum_2 x_66 x_5)
			(sum_2 x_67 x_7)
			(sum_2 x_68 x_6)
			(sum_2 x_69 x_5)
			(sum_2 x_70 x_6)
			(not_0 x_98 false)
			(add_0 x_103 x_2 (S_0 Z_0))
			(add_0 x_104 x_151 (S_0 Z_0))
			(retInt_1 x_150 x_3)
			(curInt_1 x_151 x_3))
		(main_0 x_1))))
(assert (forall ((x_8 Bool) (x_9 List_0) (c_3 Nat_0) (x_71 Nat_0))
	(=>	(and (= x_71 c_3)
			(sum_0 x_9 c_3)
			(= x_8 false)
			(sum_2 x_71 x_9))
		(mainabs_0 x_9 false x_8 c_3))))
(assert (forall ((x_10 Bool) (x_11 List_0) (c_4 Nat_0) (x_72 Nat_0))
	(=>	(and (= x_72 c_4)
			(sum_0 x_11 c_4)
			(= x_10 true)
			(sum_2 x_72 x_11))
		(mainabs_0 x_11 true x_10 c_4))))
(assert (forall ((x_12 List_0) (x_13 Nat_0))
	(=> (sum_1 x_12 x_13)
	    (sum_0 x_12 x_13))))
(assert (forall ((x_14 Nat_0) (x_15 Nat_0) (x_16 Nat_0) (x_17 List_0) (x_105 Nat_0))
	(=>	(and (sum_0 x_17 x_15)
			(= x_14 x_105)
			(add_0 x_105 x_16 x_15))
		(sum_1 (List_1 x_16 x_17) x_14))))
(assert (forall ((x_18 Nat_0))
	(=> (= x_18 Z_0)
	    (sum_1 List_4 x_18))))
(assert (forall ((x_19 MutInt_0) (x_20 MutList_0) (c_5 Nat_0) (c_6 Nat_0) (c_7 Nat_0) (c_8 Nat_0) (x_73 Nat_0) (x_74 Nat_0) (x_75 Nat_0) (x_76 Nat_0) (x_152 List_0) (x_153 List_0) (x_154 List_0) (x_155 List_0) (x_156 List_0) (x_157 List_0) (x_158 List_0) (x_159 List_0))
	(=>	(and (= x_73 c_5)
			(sum_0 x_152 c_5)
			(= x_74 c_6)
			(sum_0 x_153 c_6)
			(= x_75 c_7)
			(sum_0 x_154 c_7)
			(= x_76 c_8)
			(sum_0 x_155 c_8)
			(takesomeabs_1 x_20 x_19 c_7 c_8)
			(sum_2 x_73 x_156)
			(sum_2 x_74 x_157)
			(sum_2 x_75 x_158)
			(sum_2 x_76 x_159)
			(curList_1 x_152 x_20)
			(retList_1 x_153 x_20)
			(curList_1 x_154 x_20)
			(retList_1 x_155 x_20)
			(curList_1 x_156 x_20)
			(retList_1 x_157 x_20)
			(curList_1 x_158 x_20)
			(retList_1 x_159 x_20))
		(takesomeabs_0 x_20 x_19 c_5 c_6))))
(assert (forall ((x_21 List_0) (x_22 Nat_0) (x_23 List_0) (x_24 Nat_0) (x_25 Bool) (x_26 MutInt_0) (x_27 MutList_0) (c_9 Nat_0) (c_10 Nat_0) (c_11 Nat_0) (c_12 Nat_0) (c_13 Nat_0) (c_14 Nat_0) (x_77 Nat_0) (x_78 Nat_0) (x_79 Nat_0) (x_80 Nat_0) (x_81 Nat_0) (x_82 Nat_0) (x_165 List_0) (x_160 List_0) (x_161 List_0) (x_162 List_0) (x_163 List_0) (x_164 List_0))
	(=>	(and (retList_1 x_165 x_27)
			(= x_77 c_9)
			(sum_0 (List_1 x_22 x_21) c_9)
			(= x_78 c_10)
			(sum_0 x_160 c_10)
			(= x_79 c_11)
			(sum_0 (List_1 x_24 x_23) c_11)
			(= x_80 c_12)
			(sum_0 x_161 c_12)
			(= x_81 c_13)
			(sum_0 x_21 c_13)
			(= x_82 c_14)
			(sum_0 x_23 c_14)
			(takesomeabs_2 (mutList_1 (List_1 x_24 x_23) x_162) (mutInt_1 x_22 x_24) (mutList_1 x_21 x_23) x_25 x_26 c_11 c_12 c_13 c_14)
			(sum_2 x_77 (List_1 x_22 x_21))
			(sum_2 x_78 x_163)
			(sum_2 x_79 (List_1 x_24 x_23))
			(sum_2 x_80 x_164)
			(sum_2 x_81 x_21)
			(sum_2 x_82 x_23)
			(retList_1 x_160 x_27)
			(retList_1 x_161 x_27)
			(retList_1 x_162 x_27)
			(retList_1 x_163 x_27)
			(retList_1 x_164 x_27))
		(takesomeabs_1 (mutList_1 (List_1 x_22 x_21) x_165) x_26 c_9 c_10))))
(assert (forall ((x_28 Nat_0) (x_29 Nat_0) (x_30 Nat_0) (x_31 List_0) (x_32 MutInt_0) (x_33 MutInt_0) (x_34 MutList_0) (c_15 Nat_0) (c_16 Nat_0) (c_17 Nat_0) (c_18 Nat_0) (x_83 Nat_0) (x_84 Nat_0) (x_85 Nat_0) (x_86 Nat_0) (x_171 List_0) (x_166 List_0) (x_167 Nat_0) (x_168 List_0) (x_169 Nat_0) (x_170 List_0))
	(=>	(and (retList_1 x_171 x_34)
			(= x_83 c_15)
			(sum_0 List_4 c_15)
			(= x_84 c_16)
			(sum_0 x_166 c_16)
			(= x_85 c_17)
			(sum_0 List_4 c_17)
			(= x_86 c_18)
			(sum_0 x_31 c_18)
			(takesomeabs_0 (mutList_1 List_4 x_31) x_32 c_17 c_18)
			(= x_167 x_30)
			(= x_30 x_29)
			(= x_29 x_28)
			(= x_168 x_31)
			(= x_33 (mutInt_1 x_169 x_28))
			(sum_2 x_83 List_4)
			(sum_2 x_84 x_170)
			(sum_2 x_85 List_4)
			(sum_2 x_86 x_31)
			(retList_1 x_166 x_34)
			(retInt_1 x_167 x_32)
			(retList_1 x_168 x_34)
			(curInt_1 x_169 x_32)
			(retList_1 x_170 x_34))
		(takesomeabs_1 (mutList_1 List_4 x_171) x_33 c_15 c_16))))
(assert (forall ((x_35 Nat_0) (x_36 Nat_0) (x_37 Nat_0) (x_38 Nat_0) (x_39 Nat_0) (x_40 Nat_0) (x_41 List_0) (x_42 MutInt_0) (x_43 MutInt_0) (x_44 MutList_0) (x_45 MutInt_0) (x_46 MutList_0) (c_19 Nat_0) (c_20 Nat_0) (c_21 Nat_0) (c_22 Nat_0) (c_23 Nat_0) (c_24 Nat_0) (x_87 Nat_0) (x_88 Nat_0) (x_89 Nat_0) (x_90 Nat_0) (x_91 Nat_0) (x_92 Nat_0) (x_172 List_0) (x_173 List_0) (x_174 List_0) (x_175 List_0) (x_176 List_0) (x_177 List_0) (x_178 Nat_0) (x_179 List_0) (x_180 Nat_0) (x_181 Nat_0) (x_182 List_0) (x_183 List_0) (x_184 Nat_0) (x_185 List_0) (x_186 List_0) (x_187 List_0) (x_188 List_0) (x_189 List_0))
	(=>	(and (= x_87 c_19)
			(sum_0 x_172 c_19)
			(= x_88 c_20)
			(sum_0 x_173 c_20)
			(= x_89 c_21)
			(sum_0 x_174 c_21)
			(= x_90 c_22)
			(sum_0 x_175 c_22)
			(= x_91 c_23)
			(sum_0 x_176 c_23)
			(= x_92 c_24)
			(sum_0 x_41 c_24)
			(takesomeabs_0 (mutList_1 x_177 x_41) x_42 c_23 c_24)
			(= x_178 x_40)
			(= x_40 x_39)
			(= x_39 x_38)
			(= x_38 x_37)
			(= x_179 x_41)
			(= x_180 x_181)
			(= x_37 x_36)
			(= x_36 x_35)
			(= x_182 x_183)
			(= x_43 (mutInt_1 x_184 x_35))
			(sum_2 x_87 x_185)
			(sum_2 x_88 x_186)
			(sum_2 x_89 x_187)
			(sum_2 x_90 x_188)
			(sum_2 x_91 x_189)
			(sum_2 x_92 x_41)
			(curList_1 x_172 x_46)
			(retList_1 x_173 x_46)
			(curList_1 x_174 x_44)
			(retList_1 x_175 x_44)
			(curList_1 x_176 x_44)
			(curList_1 x_177 x_44)
			(retInt_1 x_178 x_42)
			(retList_1 x_179 x_44)
			(retInt_1 x_180 x_45)
			(curInt_1 x_181 x_45)
			(retList_1 x_182 x_46)
			(curList_1 x_183 x_46)
			(curInt_1 x_184 x_42)
			(curList_1 x_185 x_46)
			(retList_1 x_186 x_46)
			(curList_1 x_187 x_44)
			(retList_1 x_188 x_44)
			(curList_1 x_189 x_44))
		(takesomeabs_2 x_46 x_45 x_44 false x_43 c_19 c_20 c_21 c_22))))
(assert (forall ((x_47 Nat_0) (x_48 Nat_0) (x_49 Nat_0) (x_50 Nat_0) (x_51 Nat_0) (x_52 Nat_0) (x_53 MutInt_0) (x_54 MutList_0) (x_55 MutInt_0) (x_56 MutList_0) (c_25 Nat_0) (c_26 Nat_0) (c_27 Nat_0) (c_28 Nat_0) (x_93 Nat_0) (x_94 Nat_0) (x_95 Nat_0) (x_96 Nat_0) (x_190 List_0) (x_191 List_0) (x_192 List_0) (x_193 List_0) (x_194 List_0) (x_195 List_0) (x_196 Nat_0) (x_197 List_0) (x_198 List_0) (x_199 Nat_0) (x_200 List_0) (x_201 List_0) (x_202 List_0) (x_203 List_0))
	(=>	(and (= x_93 c_25)
			(sum_0 x_190 c_25)
			(= x_94 c_26)
			(sum_0 x_191 c_26)
			(= x_95 c_27)
			(sum_0 x_192 c_27)
			(= x_96 c_28)
			(sum_0 x_193 c_28)
			(= x_52 x_51)
			(= x_51 x_50)
			(= x_50 x_49)
			(= x_194 x_195)
			(= x_196 x_52)
			(= x_49 x_48)
			(= x_48 x_47)
			(= x_197 x_198)
			(= x_53 (mutInt_1 x_199 x_47))
			(sum_2 x_93 x_200)
			(sum_2 x_94 x_201)
			(sum_2 x_95 x_202)
			(sum_2 x_96 x_203)
			(curList_1 x_190 x_56)
			(retList_1 x_191 x_56)
			(curList_1 x_192 x_54)
			(retList_1 x_193 x_54)
			(retList_1 x_194 x_54)
			(curList_1 x_195 x_54)
			(retInt_1 x_196 x_55)
			(retList_1 x_197 x_56)
			(curList_1 x_198 x_56)
			(curInt_1 x_199 x_55)
			(curList_1 x_200 x_56)
			(retList_1 x_201 x_56)
			(curList_1 x_202 x_54)
			(retList_1 x_203 x_54))
		(takesomeabs_2 x_56 x_55 x_54 true x_53 c_25 c_26 c_27 c_28))))
(assert (forall ((x_57 Nat_0))
	(=> (main_0 true)
	    false)))
(check-sat)
